language ESSENCE' 1.0
$ minion Nodes: 1
$ minion TotalTime: 0.000577
$ Savile Row TotalTime: 0.197
letting pain_tuple1_tuple1_tuple2 be [[[4, 5, 6;int(1..3)], 
[4, 5, 6;int(1..3)];int(3,4)], 
[[5, 6, 4;int(1..3)], 
[5, 6, 4;int(1..3)];int(3,4)];int(1..2)]
letting pain_tuple1_tuple1_tuple1 be [[[1, 2, 3;int(1..3)], 
[1, 2, 3;int(1..3)];int(3,4)], 
[[3, 1, 2;int(1..3)], 
[3, 1, 2;int(1..3)];int(3,4)];int(1..2)]
